NAME : valedojaguaribe21
COMMENT : 
TYPE : TSP
DIMENSION : 21
EDGE_WEIGHT_TYPE : EUC_2D
LOWER_BOUND : 55555
NODE_COORD_SECTION
1 -4.9414188 -37.976262
2 -6.043627499999999 -38.460721
3 -5.8927263 -38.6219897
4 -6.0319953 -38.34942350000001
5 -5.810713499999999 -38.3040228
6 -5.7234148 -38.1539198
7 -5.460287399999999 -38.462624
8 -5.609255500000002 -38.76299449999999
9 -5.5189184 -38.2707613
10 -5.2442316 -38.1286594
11 -5.1084431 -38.371994
12 -5.2695453 -38.2720868
13 -5.1467293 -38.0964766
14 -5.072829099999999 -37.9894863
15 -4.8378331 -37.7828916
16 -4.676792499999999 -37.82235239999999
17 -4.7474946 -37.9618088
18 -4.4508732 -37.7989075
19 -4.5612094 -37.7688612
20 -4.7125391 -37.3553265
21 -4.9775101 -38.63748
EOF